3 10
303 278 210 
0 78 82 10 1 21 19 1 9 93 92 80 91 3
1 48 51 95 93 21 28 96 63 71 88 57 73 2
2 77 69 31 39 24 18 62 68 18 13 38 34 2
3 58 54 107 100 37 47 89 11 98 90 69 10 3
4 34 27 67 77 26 20 12 98 28 24 39 46 3
5 91 96 38 43 93 97 35 54 27 28 40 84 3
6 83 88 12 14 33 41 93 96 32 74 37 62 3
7 41 46 81 85 32 23 26 97 43 46 71 54 2
8 57 56 13 22 98 89 20 6 41 31 26 21 1
9 46 37 81 83 32 38 25 31 56 4 96 54 2
